22
5 -6 7772 6
2 0 5057 1
3 2 2131 0
1 1 1619 4
-2 3 721 10
-1 3 4557 10
1 -5 8366 8
0 5 8965 0
-1 -1 5066 10
4 -3 1837 5
2 1 1236 1
-5 -1 202 2
5 0 1084 10
2 -6 8603 7
4 -6 718 2
-1 5 7403 1
-1 3 3866 7
0 -6 2181 6
3 -1 4322 4
6 -6 3167 0
1 -1 9758 9
1 0 2765 0
